20J6M/DAT/20J6MNNL-14.dat
20 6
29.3337 29.3337
22.0962 22.0962
25.2696 25.2696
25.7441 25.7441
31.7399 31.7399
27.1323 27.1323
17.0579 17.0579
21.4956 21.4956
29.5838 29.5838
25.6495 25.6495
25.7851 25.7851
24.7634 24.7634
26.0395 26.0395
28.2631 28.2631
28.9743 28.9743
28.3962 28.3962
21.2173 21.2173
27.7348 27.7348
28.2579 28.2579
27.2263 27.2263
521.7605