20J6M/SOL/20J6MNNL-14.sol
solution status: optimal solution found
objective value:                     86.9600833333333
x#1#5                                               1 	(obj:0)
x#2#5                                               1 	(obj:0)
x#3#2                                               1 	(obj:0)
x#4#3                                               1 	(obj:0)
x#5#5                               0.206550220175027 	(obj:0)
x#5#6                               0.793449779824973 	(obj:0)
x#6#3                                               1 	(obj:0)
x#7#1                                               1 	(obj:0)
x#8#1                                               1 	(obj:0)
x#9#6                                               1 	(obj:0)
x#10#2                                              1 	(obj:0)
x#11#2                              0.437368221699095 	(obj:0)
x#11#3                              0.562631778300905 	(obj:0)
x#12#2                                              1 	(obj:0)
x#13#4                                              1 	(obj:0)
x#14#4                              0.865688241322902 	(obj:0)
x#14#6                              0.134311758677098 	(obj:0)
x#15#5                                              1 	(obj:0)
x#16#6                                              1 	(obj:0)
x#17#1                                              1 	(obj:0)
x#18#4                                              1 	(obj:0)
x#19#1                              0.962183436608288 	(obj:0)
x#19#4                             0.0378165633917122 	(obj:0)
x#20#3                              0.719016784016435 	(obj:0)
x#20#4                              0.280983215983565 	(obj:0)
z                                    86.9600833333333 	(obj:1)
